32	0

0	2	2	3
1	3	4	5	8
5	1	4
2	2	6	7
8	2	6	7
9	1	11
1	1	9
9	1	9
1	2	10	11
10	1	12
3	1	12
7	2	13	14
10	1	15
4	1	15
5	2	16	17
2	2	18	19
10	2	18	20
5	1	21
10	1	20
10	1	21
7	1	22
9	1	23
9	1	24
4	1	25
5	1	26
5	1	27
3	1	28
1	1	29
6	1	30
6	1	31
3	1	32
0	0
